885.19 0
0 78 34 35 71 65 66 20 30 70 51 9 81 33 50 0
0 19 49 64 11 63 90 32 10 62 88 31 52 0
0 27 69 1 76 77 3 79 29 24 68 80 12 28 0
0 4 56 23 67 39 25 55 54 26 0
0 7 82 48 47 36 46 8 45 17 16 91 100 37 98 92 13 0
0 21 73 72 74 75 22 41 57 2 40 58 53 0
0 44 86 38 14 43 15 42 87 97 95 94 6 0
0 96 99 59 93 85 61 84 5 60 83 18 89 0